%Scalars
Students=40;
Disciplines=12;
Hospitals=3;
Duration=1;
Horizon=12;
Groups=2;
MaxDiscPerHosp=11;
%Data structures
DiscGroup = [1,1,1,1,1,1,2,2,2,2,2,2];

StudDiscGroup =[|
5, 2 |
2, 5 |
6, 5 |
3, 1 |
0, 2 |
4, 2 |
5, 0 |
5, 5 |
6, 3 |
6, 6 |
6, 6 |
4, 3 |
2, 5 |
2, 2 |
4, 3 |
2, 2 |
4, 4 |
4, 4 |
5, 4 |
2, 3 |
4, 3 |
3, 5 |
4, 3 |
2, 0 |
0, 1 |
1, 2 |
0, 6 |
1, 0 |
3, 1 |
0, 4 |
1, 2 |
4, 4 |
3, 2 |
5, 1 |
4, 2 |
1, 0 |
1, 3 |
0, 2 |
0, 5 |
4, 4 |];

AllowedDisc =[|
1, 1, 1, 1, 1, 1, 1, 1, 1, 1, 1, 1 |
1, 1, 1, 1, 1, 1, 1, 1, 1, 1, 1, 1 |
1, 1, 1, 1, 1, 1, 1, 1, 1, 1, 1, 1 |
1, 1, 1, 1, 1, 1, 1, 1, 1, 1, 1, 1 |
1, 1, 1, 1, 1, 1, 1, 1, 1, 1, 1, 1 |
1, 1, 1, 1, 1, 1, 1, 1, 1, 1, 1, 1 |
1, 1, 1, 1, 1, 1, 1, 1, 1, 1, 1, 1 |
1, 1, 1, 1, 1, 1, 1, 1, 1, 1, 1, 1 |
1, 1, 1, 1, 1, 1, 1, 1, 1, 1, 1, 1 |
1, 1, 1, 1, 1, 1, 1, 1, 1, 1, 1, 1 |
1, 1, 1, 1, 1, 1, 1, 1, 1, 1, 1, 1 |
1, 1, 1, 1, 1, 1, 1, 1, 1, 1, 1, 1 |
1, 1, 1, 1, 1, 1, 1, 1, 1, 1, 1, 1 |
1, 1, 1, 1, 1, 1, 1, 1, 1, 1, 1, 1 |
1, 1, 1, 1, 1, 1, 1, 1, 1, 1, 1, 1 |
1, 1, 1, 1, 1, 1, 1, 1, 1, 1, 1, 1 |
1, 1, 1, 1, 1, 1, 1, 1, 1, 1, 1, 1 |
1, 1, 1, 1, 1, 1, 1, 1, 1, 1, 1, 1 |
1, 1, 1, 1, 1, 1, 1, 1, 1, 1, 1, 1 |
1, 1, 1, 1, 1, 1, 1, 1, 1, 1, 1, 1 |
1, 1, 1, 1, 1, 1, 1, 1, 1, 1, 1, 1 |
1, 1, 1, 1, 1, 1, 1, 1, 1, 1, 1, 1 |
1, 1, 1, 1, 1, 1, 1, 1, 1, 1, 1, 1 |
1, 1, 1, 1, 1, 1, 1, 1, 1, 1, 1, 1 |
1, 1, 1, 1, 1, 1, 1, 1, 1, 1, 1, 1 |
1, 1, 1, 1, 1, 1, 1, 1, 1, 1, 1, 1 |
1, 1, 1, 1, 1, 1, 1, 1, 1, 1, 1, 1 |
1, 1, 1, 1, 1, 1, 1, 1, 1, 1, 1, 1 |
1, 1, 1, 1, 1, 1, 1, 1, 1, 1, 1, 1 |
1, 1, 1, 1, 1, 1, 1, 1, 1, 1, 1, 1 |
1, 1, 1, 1, 1, 1, 1, 1, 1, 1, 1, 1 |
1, 1, 1, 1, 1, 1, 1, 1, 1, 1, 1, 1 |
1, 1, 1, 1, 1, 1, 1, 1, 1, 1, 1, 1 |
1, 1, 1, 1, 1, 1, 1, 1, 1, 1, 1, 1 |
1, 1, 1, 1, 1, 1, 1, 1, 1, 1, 1, 1 |
1, 1, 1, 1, 1, 1, 1, 1, 1, 1, 1, 1 |
1, 1, 1, 1, 1, 1, 1, 1, 1, 1, 1, 1 |
1, 1, 1, 1, 1, 1, 1, 1, 1, 1, 1, 1 |
1, 1, 1, 1, 1, 1, 1, 1, 1, 1, 1, 1 |
1, 1, 1, 1, 1, 1, 1, 1, 1, 1, 1, 1 |];

Precededby =[|
0, 0, 0, 0, 0, 0, 0, 0, 0, 0, 0, 0 |
0, 0, 0, 0, 0, 0, 0, 0, 0, 0, 0, 0 |
0, 0, 0, 0, 0, 0, 0, 0, 0, 0, 0, 0 |
0, 1, 0, 0, 0, 0, 0, 0, 0, 0, 0, 0 |
0, 1, 0, 0, 0, 0, 0, 0, 0, 0, 0, 0 |
0, 0, 0, 0, 0, 0, 0, 0, 0, 0, 0, 0 |
0, 0, 0, 0, 0, 0, 0, 0, 0, 0, 0, 0 |
0, 0, 0, 0, 0, 0, 0, 0, 0, 0, 0, 0 |
0, 0, 0, 0, 0, 0, 0, 0, 0, 0, 0, 0 |
0, 0, 0, 0, 0, 0, 0, 0, 0, 0, 0, 0 |
0, 0, 0, 0, 0, 0, 0, 0, 0, 0, 0, 0 |
0, 0, 0, 0, 0, 0, 0, 0, 1, 1, 1, 0 |];

Availability =[|
1, 1, 1, 1, 0, 1, 0, 1, 0, 0, 1, 1 |
0, 1, 0, 1, 1, 1, 1, 1, 1, 1, 1, 1 |
1, 1, 1, 1, 1, 1, 1, 1, 0, 1, 1, 1 |
1, 1, 1, 0, 1, 1, 1, 1, 1, 1, 1, 1 |
0, 1, 0, 1, 1, 0, 0, 1, 0, 1, 1, 1 |
0, 1, 1, 1, 1, 1, 1, 1, 1, 1, 1, 0 |
1, 1, 0, 1, 1, 1, 1, 1, 0, 1, 1, 1 |
1, 1, 1, 1, 1, 1, 1, 1, 1, 1, 1, 1 |
0, 1, 1, 1, 1, 1, 1, 0, 1, 1, 1, 1 |
1, 1, 1, 1, 1, 1, 1, 1, 1, 1, 1, 1 |
1, 1, 1, 1, 1, 1, 1, 1, 1, 1, 1, 1 |
1, 1, 1, 0, 1, 1, 1, 1, 1, 1, 1, 1 |
1, 1, 1, 0, 1, 1, 1, 0, 0, 1, 1, 1 |
1, 1, 1, 1, 1, 1, 1, 1, 1, 1, 1, 1 |
1, 1, 1, 1, 0, 1, 0, 1, 1, 0, 1, 0 |
1, 1, 0, 0, 0, 1, 1, 1, 0, 1, 1, 1 |
1, 1, 1, 1, 1, 0, 1, 1, 1, 1, 1, 1 |
1, 1, 1, 1, 1, 1, 1, 1, 1, 0, 1, 1 |
1, 1, 1, 1, 1, 0, 1, 1, 1, 1, 1, 1 |
1, 1, 0, 1, 1, 1, 1, 1, 1, 1, 0, 1 |
1, 1, 1, 1, 1, 1, 1, 1, 1, 1, 1, 1 |
1, 0, 1, 1, 1, 1, 1, 1, 1, 1, 1, 1 |
1, 1, 1, 1, 1, 1, 1, 1, 1, 1, 1, 1 |
0, 1, 1, 0, 1, 0, 0, 1, 0, 0, 0, 0 |
1, 1, 0, 1, 1, 1, 0, 0, 1, 1, 1, 1 |
1, 1, 1, 1, 1, 1, 1, 1, 1, 1, 1, 1 |
1, 1, 1, 1, 0, 1, 1, 1, 1, 1, 1, 0 |
1, 0, 1, 0, 1, 0, 1, 0, 1, 1, 1, 1 |
1, 1, 1, 1, 1, 1, 1, 1, 1, 1, 1, 1 |
1, 0, 1, 1, 0, 1, 0, 1, 1, 0, 1, 0 |
0, 0, 0, 1, 0, 1, 1, 0, 1, 0, 1, 1 |
1, 1, 1, 0, 1, 1, 1, 1, 0, 0, 1, 1 |
0, 1, 1, 1, 1, 1, 1, 1, 1, 0, 0, 1 |
1, 1, 1, 1, 1, 1, 1, 1, 0, 1, 1, 1 |
1, 1, 1, 1, 0, 0, 0, 1, 1, 1, 1, 0 |
0, 1, 1, 1, 0, 1, 1, 1, 0, 0, 0, 1 |
0, 0, 1, 1, 1, 0, 1, 1, 0, 1, 1, 1 |
1, 1, 0, 1, 1, 1, 1, 1, 1, 1, 1, 1 |
1, 1, 1, 1, 1, 1, 1, 1, 1, 1, 0, 0 |
0, 1, 1, 1, 1, 1, 1, 1, 1, 0, 1, 1 |];

Ability =
 array3d(1..Students,1..Hospitals,1..Disciplines,[
1, 1, 1, 1, 1, 1, 1, 1, 1, 1, 1, 1 ,
1, 1, 1, 1, 1, 1, 1, 1, 1, 1, 1, 1 ,
1, 1, 1, 0, 1, 1, 1, 1, 1, 1, 1, 1 ,
1, 1, 1, 1, 0, 0, 1, 1, 1, 1, 1, 1 ,
1, 1, 1, 1, 1, 1, 1, 1, 0, 1, 1, 1 ,
1, 1, 1, 1, 1, 1, 1, 1, 1, 1, 1, 0 ,
1, 1, 1, 1, 1, 1, 0, 1, 1, 1, 1, 1 ,
1, 1, 1, 1, 1, 1, 1, 1, 1, 1, 0, 1 ,
1, 1, 1, 1, 1, 1, 1, 0, 1, 1, 1, 1 ,
1, 1, 1, 1, 1, 1, 1, 1, 1, 1, 1, 1 ,
1, 1, 1, 1, 1, 1, 1, 1, 1, 0, 1, 0 ,
1, 1, 1, 1, 0, 1, 0, 1, 1, 1, 1, 1 ,
1, 1, 1, 1, 1, 1, 1, 1, 1, 1, 1, 1 ,
1, 1, 0, 1, 0, 1, 1, 1, 1, 1, 1, 1 ,
1, 1, 1, 0, 1, 1, 1, 1, 1, 1, 1, 1 ,
1, 1, 1, 1, 1, 1, 1, 1, 1, 1, 1, 1 ,
1, 1, 1, 1, 1, 1, 0, 1, 1, 1, 1, 1 ,
1, 1, 1, 1, 0, 1, 1, 1, 1, 1, 1, 1 ,
1, 1, 1, 1, 1, 1, 1, 1, 1, 0, 1, 1 ,
1, 1, 1, 1, 1, 1, 1, 1, 1, 1, 1, 1 ,
0, 1, 1, 1, 1, 1, 1, 1, 1, 1, 1, 1 ,
1, 1, 1, 1, 1, 1, 1, 1, 1, 1, 1, 1 ,
1, 1, 1, 1, 1, 1, 1, 1, 1, 1, 1, 1 ,
1, 1, 1, 1, 1, 1, 1, 1, 1, 1, 1, 1 ,
1, 1, 1, 1, 1, 1, 1, 1, 1, 1, 1, 1 ,
1, 1, 1, 1, 1, 1, 1, 1, 0, 0, 1, 1 ,
1, 1, 1, 1, 1, 1, 1, 1, 1, 1, 1, 1 ,
1, 1, 1, 1, 1, 1, 1, 1, 1, 1, 1, 1 ,
1, 1, 1, 1, 1, 1, 1, 1, 1, 1, 1, 1 ,
1, 1, 1, 1, 1, 1, 1, 1, 1, 1, 1, 1 ,
1, 1, 1, 1, 1, 1, 1, 1, 1, 1, 1, 1 ,
1, 1, 0, 1, 1, 1, 1, 1, 1, 1, 1, 1 ,
1, 1, 1, 1, 1, 1, 1, 1, 1, 1, 1, 1 ,
1, 1, 1, 1, 0, 1, 1, 1, 1, 1, 1, 1 ,
1, 1, 1, 1, 1, 1, 1, 1, 1, 1, 1, 1 ,
1, 1, 1, 1, 1, 1, 1, 1, 1, 1, 1, 1 ,
1, 1, 1, 1, 1, 1, 1, 1, 1, 1, 1, 1 ,
1, 0, 1, 1, 1, 1, 1, 1, 1, 1, 1, 1 ,
1, 1, 1, 1, 1, 0, 1, 1, 1, 1, 1, 1 ,
1, 1, 1, 1, 0, 0, 1, 1, 1, 1, 1, 1 ,
1, 1, 0, 1, 0, 1, 1, 1, 1, 1, 1, 1 ,
1, 1, 1, 0, 1, 1, 1, 1, 1, 1, 1, 1 ,
1, 1, 1, 0, 1, 1, 1, 1, 1, 0, 1, 1 ,
1, 1, 1, 1, 1, 1, 1, 1, 0, 1, 1, 1 ,
1, 1, 1, 0, 1, 1, 1, 1, 1, 1, 1, 1 ,
1, 1, 1, 1, 1, 1, 1, 1, 1, 1, 1, 1 ,
1, 1, 1, 1, 1, 1, 1, 1, 1, 1, 1, 1 ,
1, 1, 1, 1, 1, 1, 1, 1, 1, 1, 1, 1 ,
1, 1, 1, 1, 1, 1, 1, 1, 1, 1, 1, 1 ,
1, 1, 1, 1, 1, 1, 1, 1, 1, 1, 1, 1 ,
1, 0, 1, 1, 1, 1, 0, 1, 1, 1, 1, 1 ,
1, 1, 1, 1, 1, 1, 1, 1, 1, 1, 1, 1 ,
1, 1, 1, 1, 1, 0, 1, 1, 1, 1, 1, 1 ,
1, 1, 1, 1, 0, 1, 1, 1, 1, 1, 1, 1 ,
1, 1, 1, 1, 1, 1, 1, 1, 1, 1, 1, 1 ,
1, 1, 1, 1, 1, 1, 0, 1, 1, 1, 0, 1 ,
1, 1, 1, 1, 1, 1, 1, 1, 1, 1, 1, 1 ,
1, 1, 1, 1, 1, 1, 1, 1, 1, 1, 1, 1 ,
1, 1, 1, 1, 1, 1, 1, 1, 1, 1, 1, 1 ,
1, 1, 1, 1, 1, 1, 1, 1, 1, 1, 1, 1 ,
1, 1, 1, 0, 0, 1, 1, 1, 1, 1, 1, 1 ,
1, 1, 1, 1, 1, 1, 1, 1, 1, 1, 1, 1 ,
0, 1, 1, 1, 1, 1, 1, 1, 1, 1, 1, 1 ,
1, 1, 1, 1, 1, 1, 1, 1, 1, 1, 1, 1 ,
1, 1, 1, 1, 1, 1, 1, 1, 1, 1, 1, 1 ,
1, 1, 1, 1, 1, 1, 1, 1, 1, 1, 1, 1 ,
1, 1, 1, 1, 1, 1, 1, 1, 1, 1, 1, 1 ,
1, 1, 1, 1, 1, 1, 1, 1, 1, 0, 1, 1 ,
1, 1, 1, 1, 1, 1, 1, 1, 1, 1, 1, 0 ,
1, 1, 1, 1, 1, 1, 1, 1, 1, 1, 1, 1 ,
1, 1, 1, 1, 1, 1, 1, 1, 1, 1, 1, 1 ,
1, 1, 1, 1, 1, 1, 1, 1, 1, 1, 1, 1 ,
1, 1, 1, 1, 1, 0, 0, 1, 1, 1, 1, 1 ,
1, 1, 1, 1, 1, 1, 1, 1, 1, 1, 1, 1 ,
1, 1, 1, 1, 1, 1, 1, 1, 1, 1, 0, 1 ,
1, 0, 1, 1, 1, 1, 1, 1, 1, 1, 1, 1 ,
1, 1, 1, 1, 0, 0, 1, 1, 1, 1, 1, 1 ,
1, 1, 1, 1, 1, 1, 1, 1, 1, 1, 1, 1 ,
1, 1, 1, 1, 1, 1, 1, 1, 1, 1, 1, 1 ,
1, 1, 1, 1, 1, 1, 1, 1, 1, 1, 1, 1 ,
1, 1, 1, 1, 1, 1, 1, 1, 1, 1, 1, 1 ,
1, 1, 0, 1, 1, 1, 1, 1, 1, 1, 1, 1 ,
1, 1, 1, 1, 1, 1, 1, 1, 1, 1, 1, 1 ,
1, 1, 1, 1, 1, 1, 0, 1, 1, 1, 0, 1 ,
1, 1, 1, 0, 1, 1, 1, 1, 1, 1, 1, 1 ,
1, 1, 1, 1, 1, 1, 1, 1, 1, 1, 1, 1 ,
1, 1, 1, 1, 1, 1, 1, 1, 1, 1, 1, 1 ,
1, 1, 1, 1, 1, 1, 1, 1, 1, 1, 1, 1 ,
1, 1, 0, 1, 1, 1, 1, 1, 1, 1, 1, 1 ,
1, 1, 0, 1, 1, 1, 1, 1, 1, 1, 1, 1 ,
1, 1, 1, 1, 1, 0, 1, 1, 1, 1, 1, 1 ,
1, 1, 1, 1, 1, 1, 1, 1, 1, 1, 1, 1 ,
1, 1, 1, 1, 1, 1, 1, 1, 0, 1, 1, 1 ,
1, 1, 0, 1, 1, 1, 1, 1, 1, 1, 1, 0 ,
1, 0, 0, 1, 1, 1, 1, 1, 1, 1, 1, 1 ,
1, 1, 1, 1, 1, 1, 1, 1, 0, 1, 1, 1 ,
1, 1, 1, 1, 1, 1, 1, 1, 1, 1, 1, 1 ,
1, 1, 1, 1, 0, 1, 1, 1, 1, 1, 1, 1 ,
1, 1, 1, 0, 1, 1, 1, 1, 1, 1, 1, 1 ,
1, 1, 1, 1, 1, 1, 1, 1, 1, 1, 1, 1 ,
1, 1, 1, 1, 1, 1, 1, 1, 1, 1, 1, 1 ,
1, 1, 1, 1, 1, 1, 1, 1, 1, 1, 1, 1 ,
1, 1, 1, 1, 1, 1, 1, 1, 1, 1, 1, 1 ,
1, 0, 1, 1, 1, 1, 1, 1, 1, 1, 0, 1 ,
1, 0, 1, 1, 1, 1, 1, 1, 1, 1, 1, 1 ,
1, 1, 1, 1, 1, 1, 1, 1, 1, 1, 1, 1 ,
1, 1, 1, 1, 1, 1, 1, 1, 0, 1, 1, 1 ,
1, 1, 1, 1, 1, 1, 0, 1, 1, 1, 1, 1 ,
1, 1, 1, 1, 1, 0, 1, 1, 0, 1, 1, 1 ,
1, 1, 1, 1, 1, 1, 1, 1, 0, 1, 1, 1 ,
1, 1, 1, 1, 1, 1, 1, 1, 1, 1, 1, 1 ,
1, 1, 1, 1, 1, 0, 1, 1, 1, 1, 1, 1 ,
1, 1, 1, 1, 1, 1, 1, 0, 1, 1, 1, 1 ,
1, 1, 1, 1, 1, 1, 1, 1, 1, 1, 1, 0 ,
1, 1, 1, 1, 1, 1, 1, 1, 1, 1, 1, 1 ,
1, 1, 1, 1, 1, 1, 1, 1, 1, 1, 1, 1 ,
1, 1, 1, 1, 1, 1, 1, 1, 1, 1, 1, 1 ,
1, 1, 1, 1, 1, 1, 1, 1, 1, 1, 1, 1 ,
1, 1, 1, 1, 1, 1, 1, 1, 1, 0, 1, 1 ,
1, 1, 1, 1, 1, 1, 1, 0, 1, 1, 1, 1]);

MaxPosHosp =
 array3d(1..Hospitals, 1..Disciplines, 1..Horizon,[
9, 10, 12, 14, 10, 12, 9, 7, 8, 12, 13, 6 ,
13, 9, 9, 9, 7, 11, 10, 9, 6, 11, 8, 10 ,
14, 11, 8, 14, 8, 9, 9, 13, 6, 10, 7, 8 ,
10, 14, 8, 9, 8, 11, 6, 13, 14, 12, 10, 13 ,
12, 8, 12, 13, 14, 9, 9, 12, 8, 12, 7, 13 ,
14, 11, 6, 12, 9, 11, 6, 6, 11, 8, 12, 12 ,
13, 13, 11, 6, 14, 11, 8, 12, 11, 13, 6, 10 ,
12, 10, 6, 13, 8, 9, 13, 9, 12, 7, 10, 14 ,
10, 13, 7, 12, 11, 12, 7, 12, 14, 8, 14, 9 ,
8, 7, 12, 13, 6, 12, 12, 11, 12, 9, 7, 11 ,
14, 10, 12, 13, 8, 14, 8, 12, 8, 13, 9, 8 ,
11, 11, 12, 6, 6, 10, 8, 13, 8, 12, 9, 11 ,
9, 14, 12, 11, 12, 9, 6, 10, 8, 8, 8, 7 ,
6, 9, 11, 14, 10, 12, 10, 11, 7, 13, 11, 8 ,
8, 7, 13, 6, 14, 14, 9, 12, 10, 12, 10, 10 ,
10, 6, 6, 12, 14, 11, 10, 10, 10, 11, 8, 11 ,
12, 8, 7, 13, 8, 9, 7, 12, 12, 10, 13, 14 ,
6, 8, 14, 9, 10, 13, 13, 6, 6, 8, 11, 10 ,
7, 13, 8, 13, 14, 6, 7, 7, 13, 12, 12, 8 ,
7, 11, 8, 6, 8, 8, 8, 9, 8, 11, 14, 6 ,
14, 8, 7, 8, 7, 12, 6, 10, 12, 13, 6, 14 ,
13, 9, 13, 9, 8, 13, 10, 13, 8, 13, 14, 7 ,
7, 12, 8, 11, 12, 12, 12, 12, 9, 7, 10, 10 ,
10, 7, 8, 6, 14, 12, 9, 6, 12, 10, 11, 6 ,
9, 9, 10, 12, 14, 13, 14, 13, 7, 6, 12, 11 ,
6, 11, 14, 13, 6, 9, 8, 8, 10, 13, 9, 6 ,
12, 6, 14, 14, 7, 14, 14, 10, 6, 13, 12, 12 ,
13, 14, 6, 7, 8, 6, 9, 11, 12, 9, 14, 11 ,
11, 10, 14, 13, 12, 11, 13, 13, 14, 11, 6, 7 ,
7, 13, 6, 13, 10, 7, 14, 14, 11, 9, 10, 13 ,
14, 10, 14, 9, 9, 14, 7, 7, 13, 6, 7, 10 ,
10, 10, 10, 7, 11, 14, 8, 7, 13, 11, 14, 10 ,
8, 6, 12, 13, 9, 9, 6, 8, 13, 13, 7, 12 ,
6, 12, 9, 14, 13, 11, 11, 13, 14, 14, 12, 7 ,
13, 13, 7, 7, 6, 13, 11, 12, 13, 7, 11, 11 ,
6, 11, 8, 14, 10, 10, 6, 7, 8, 6, 14, 12]);

MinPosHosp =
 array3d(1..Hospitals, 1..Disciplines, 1..Horizon,[
0, 1, 0, 0, 1, 0, 0, 0, 0, 0, 0, 0 ,
1, 0, 0, 0, 0, 0, 0, 0, 0, 0, 0, 0 ,
0, 1, 0, 1, 0, 0, 0, 0, 0, 0, 0, 0 ,
0, 1, 0, 1, 0, 0, 1, 0, 0, 0, 0, 0 ,
0, 1, 0, 0, 1, 0, 0, 0, 0, 1, 0, 0 ,
0, 0, 0, 0, 0, 0, 1, 0, 0, 1, 0, 0 ,
0, 1, 1, 0, 1, 0, 0, 0, 0, 0, 0, 0 ,
0, 0, 0, 0, 1, 0, 0, 1, 0, 1, 0, 0 ,
0, 0, 0, 0, 0, 0, 0, 0, 1, 1, 0, 0 ,
0, 0, 1, 0, 0, 0, 1, 0, 1, 0, 0, 0 ,
0, 1, 0, 0, 0, 0, 0, 0, 0, 0, 1, 0 ,
0, 0, 0, 0, 0, 0, 0, 0, 0, 0, 1, 0 ,
0, 0, 0, 0, 0, 0, 0, 0, 0, 1, 0, 0 ,
0, 0, 0, 1, 0, 0, 1, 0, 0, 1, 0, 1 ,
0, 1, 1, 0, 0, 0, 0, 0, 0, 0, 0, 1 ,
0, 0, 0, 0, 0, 0, 1, 0, 0, 0, 0, 0 ,
0, 0, 0, 0, 0, 0, 1, 0, 0, 0, 0, 0 ,
0, 0, 0, 0, 0, 0, 0, 0, 0, 0, 0, 0 ,
0, 0, 0, 1, 0, 0, 0, 0, 0, 0, 0, 0 ,
0, 1, 0, 0, 0, 0, 0, 0, 0, 1, 0, 0 ,
0, 0, 0, 0, 0, 0, 0, 0, 1, 0, 0, 0 ,
0, 0, 0, 0, 0, 0, 0, 0, 0, 0, 1, 0 ,
0, 0, 0, 1, 0, 1, 0, 0, 0, 0, 0, 0 ,
0, 0, 0, 0, 1, 0, 0, 0, 0, 0, 0, 0 ,
0, 0, 0, 1, 0, 0, 0, 0, 0, 0, 0, 0 ,
0, 0, 0, 0, 0, 0, 0, 1, 0, 0, 0, 0 ,
0, 0, 0, 0, 0, 0, 0, 0, 0, 0, 0, 0 ,
0, 0, 0, 0, 0, 0, 0, 0, 0, 0, 0, 0 ,
0, 0, 0, 0, 0, 0, 0, 0, 0, 0, 0, 0 ,
0, 0, 0, 0, 0, 0, 0, 0, 0, 0, 0, 0 ,
0, 1, 0, 1, 0, 0, 0, 0, 0, 0, 0, 0 ,
0, 0, 0, 0, 0, 0, 0, 0, 0, 0, 0, 0 ,
0, 0, 0, 0, 0, 0, 0, 0, 0, 0, 0, 0 ,
0, 0, 0, 0, 0, 0, 0, 0, 0, 0, 0, 0 ,
0, 0, 0, 0, 0, 1, 1, 0, 0, 0, 0, 0 ,
0, 0, 0, 0, 0, 0, 0, 0, 0, 1, 0, 0]);

%W_disc W_hosp W_change W_wait
WeightPref=[|
3,3,-1,-2 |
3,1,-2,-3 |
1,2,-1,-3 |
1,1,-2,-3 |
1,1,-1,-1 |
1,2,-1,-1 |
2,2,-1,-2 |
2,2,-3,-3 |
1,3,-2,-2 |
3,1,-2,-3 |
2,3,-2,-2 |
2,3,-3,-2 |
3,1,-3,-2 |
3,2,-1,-2 |
1,2,-3,-2 |
2,1,-3,-2 |
2,2,-2,-2 |
3,2,-3,-3 |
2,2,-3,-3 |
2,3,-2,-3 |
3,1,-2,-2 |
1,1,-2,-3 |
3,2,-1,-3 |
1,3,-3,-1 |
1,1,-1,-1 |
2,3,-1,-2 |
3,1,-1,-1 |
2,2,-1,-3 |
2,2,-3,-3 |
2,3,-2,-1 |
2,1,-2,-3 |
2,1,-3,-1 |
1,2,-2,-1 |
3,3,-2,-1 |
2,2,-1,-2 |
3,2,-3,-1 |
1,2,-2,-1 |
3,3,-1,-2 |
2,1,-3,-1 |
1,2,-1,-3 |];

PrefStudDisc =[|
4, 1, 2, 5, 3, 2, 2, 4, 3, 2, 2, 3 |
3, 3, 5, 4, 5, 1, 4, 3, 3, 2, 1, 2 |
4, 5, 3, 1, 2, 4, 4, 3, 3, 2, 4, 2 |
5, 1, 1, 5, 4, 5, 4, 5, 4, 4, 4, 3 |
1, 2, 2, 3, 4, 2, 2, 4, 1, 5, 1, 1 |
4, 1, 3, 1, 1, 3, 5, 4, 1, 3, 3, 4 |
4, 4, 2, 3, 4, 5, 1, 1, 3, 1, 2, 3 |
3, 4, 3, 2, 4, 5, 4, 1, 2, 3, 2, 4 |
2, 1, 5, 5, 2, 1, 4, 1, 3, 5, 2, 1 |
1, 5, 4, 1, 3, 5, 2, 2, 2, 4, 1, 1 |
3, 1, 1, 3, 1, 2, 2, 1, 2, 3, 2, 2 |
4, 5, 5, 1, 5, 5, 5, 3, 4, 4, 5, 4 |
3, 5, 3, 1, 3, 4, 5, 2, 3, 3, 3, 1 |
3, 4, 1, 5, 2, 1, 5, 2, 3, 3, 4, 2 |
1, 3, 5, 5, 5, 1, 1, 1, 3, 2, 1, 2 |
3, 2, 5, 3, 4, 3, 5, 1, 3, 3, 2, 3 |
3, 4, 5, 2, 3, 5, 3, 3, 5, 2, 4, 1 |
3, 3, 1, 2, 1, 5, 2, 5, 5, 3, 2, 4 |
2, 5, 1, 2, 2, 1, 2, 4, 1, 3, 4, 3 |
4, 1, 2, 3, 1, 4, 2, 4, 4, 3, 2, 2 |
4, 4, 3, 2, 4, 4, 5, 2, 5, 3, 4, 3 |
5, 1, 4, 3, 2, 5, 3, 1, 5, 2, 5, 1 |
5, 4, 3, 2, 1, 4, 4, 3, 1, 2, 2, 1 |
5, 3, 4, 2, 3, 2, 1, 5, 5, 3, 4, 1 |
2, 2, 5, 4, 1, 4, 5, 5, 1, 4, 4, 2 |
1, 1, 4, 4, 3, 3, 3, 3, 5, 5, 3, 2 |
3, 3, 4, 3, 3, 2, 1, 5, 5, 1, 3, 4 |
2, 3, 5, 3, 1, 1, 3, 3, 5, 2, 1, 3 |
4, 5, 2, 2, 2, 3, 3, 3, 1, 5, 5, 2 |
2, 1, 1, 1, 4, 2, 5, 1, 2, 5, 3, 4 |
4, 2, 2, 2, 1, 4, 3, 2, 4, 4, 5, 2 |
4, 3, 1, 2, 3, 5, 5, 2, 1, 2, 4, 1 |
1, 4, 1, 4, 2, 5, 2, 4, 1, 5, 4, 1 |
2, 2, 3, 3, 5, 2, 1, 3, 4, 1, 1, 1 |
2, 1, 3, 3, 3, 1, 1, 2, 5, 4, 1, 2 |
5, 4, 2, 5, 1, 2, 5, 5, 1, 5, 2, 5 |
4, 4, 1, 3, 3, 3, 1, 5, 3, 2, 1, 2 |
5, 5, 2, 2, 2, 5, 2, 5, 1, 1, 3, 3 |
3, 2, 3, 3, 2, 1, 4, 1, 5, 4, 5, 3 |
3, 1, 3, 5, 3, 3, 3, 2, 1, 2, 2, 5 |];

PrefStudHosp =[|
4, 2, 5 |
2, 4, 3 |
1, 2, 4 |
4, 5, 3 |
2, 4, 1 |
1, 5, 1 |
3, 3, 1 |
4, 5, 4 |
4, 3, 4 |
2, 4, 4 |
4, 3, 1 |
5, 2, 1 |
4, 2, 2 |
1, 2, 3 |
2, 5, 5 |
2, 2, 1 |
1, 4, 4 |
5, 5, 5 |
5, 4, 5 |
2, 2, 3 |
5, 4, 2 |
1, 3, 4 |
2, 2, 5 |
4, 3, 3 |
1, 3, 1 |
2, 2, 5 |
3, 2, 1 |
1, 3, 4 |
1, 5, 5 |
1, 3, 4 |
2, 2, 3 |
3, 1, 2 |
2, 5, 1 |
5, 5, 2 |
1, 1, 5 |
1, 1, 3 |
3, 2, 5 |
3, 2, 5 |
1, 1, 1 |
1, 3, 3 |];

ManPref=[0,4,4,5,0,2,4,0,4,2,3,3];

%% Instance features:
%Scalars :40 , 12 , 1 , 12 , 3 , 0.916667
%Occupancy: 0.0535674
%Excess: 0.221277
%Busyness: 0.489583
%Density: 0.0757576
%Depth: 1
